c A SAT instance generated from a 3-CNF formula that had 52 clauses and 13 variables
p cnf 13 52
8 7 -5 0
9 5 7 0
8 -1 11 0
4 1 -6 0
-13 4 9 0
-3 -13 2 0
-9 6 11 0
8 -10 -9 0
-9 -12 -1 0
-8 -4 -12 0
6 1 -8 0
5 2 -12 0
-10 -3 6 0
4 7 -13 0
3 -2 -10 0
7 -6 8 0
-12 4 -13 0
7 13 11 0
-1 7 -2 0
6 -7 -1 0
-5 2 3 0
-13 -9 -6 0
12 -7 -5 0
3 5 -9 0
6 -9 -7 0
-1 -7 -9 0
1 -10 8 0
8 -2 -1 0
-10 -6 1 0
-8 11 -1 0
8 -5 2 0
-7 12 -2 0
-5 3 8 0
6 4 10 0
-7 -13 9 0
13 1 -11 0
-4 -10 9 0
-1 6 -12 0
8 -1 13 0
-8 -2 -11 0
-7 11 -9 0
10 -2 4 0
-1 -8 -3 0
8 -5 13 0
1 -12 -3 0
5 6 13 0
8 4 12 0
-7 -13 5 0
-5 -10 -13 0
13 11 -12 0
10 8 12 0
-5 4 1 0
